100 155282
27 65 37 83 10 58 21 29 76 3 80 39 78 71 52 61 17 53 50 12 42 11 79 95 16 62 82 23 48 35 97 5 9 63 14 85 2 49 46 7 24 91 57 25 60 13 64 81 26 36 93 74 55 32 4 34 51 40 92 99 18 75 54 56 96 30 1 43 94 70 84 22 89 31 98 73 47 67 72 38 88 15 33 59 19 68 44 20 100 45 87 6 28 77 86 8 69 66 90 41 
